p edge 280 1400
e 1 12
e 1 51
e 1 52
e 1 54
e 1 202
e 2 40
e 2 136
e 2 164
e 2 215
e 2 221
e 3 20
e 3 62
e 3 88
e 3 200
e 3 237
e 4 14
e 4 74
e 4 111
e 4 134
e 4 269
e 5 45
e 5 47
e 5 66
e 5 67
e 5 136
e 6 5
e 6 137
e 6 221
e 6 232
e 6 251
e 7 19
e 7 28
e 7 143
e 7 166
e 7 257
e 8 99
e 8 100
e 8 173
e 8 237
e 8 265
e 9 5
e 9 90
e 9 149
e 9 213
e 9 260
e 10 23
e 10 97
e 10 129
e 10 171
e 10 268
e 11 35
e 11 127
e 11 133
e 11 154
e 11 222
e 12 82
e 12 136
e 12 140
e 12 274
e 12 280
e 13 172
e 13 185
e 13 202
e 13 220
e 13 242
e 14 61
e 14 147
e 14 186
e 14 189
e 14 228
e 15 71
e 15 75
e 15 99
e 15 128
e 15 145
e 16 25
e 16 41
e 16 143
e 16 162
e 16 190
e 17 122
e 17 151
e 17 171
e 17 205
e 17 237
e 18 11
e 18 13
e 18 165
e 18 173
e 18 193
e 19 66
e 19 143
e 19 178
e 19 220
e 19 266
e 20 3
e 20 61
e 20 201
e 20 219
e 20 274
e 21 31
e 21 45
e 21 59
e 21 165
e 21 271
e 22 130
e 22 130
e 22 180
e 22 222
e 22 257
e 23 13
e 23 75
e 23 154
e 23 196
e 23 205
e 24 90
e 24 114
e 24 121
e 24 177
e 24 220
e 25 101
e 25 136
e 25 210
e 25 211
e 25 223
e 26 97
e 26 165
e 26 166
e 26 180
e 26 234
e 27 102
e 27 105
e 27 174
e 27 222
e 27 248
e 28 108
e 28 122
e 28 167
e 28 180
e 28 195
e 29 43
e 29 145
e 29 203
e 29 225
e 29 227
e 30 29
e 30 145
e 30 203
e 30 222
e 30 271
e 31 9
e 31 150
e 31 199
e 31 229
e 31 233
e 32 99
e 32 169
e 32 219
e 32 239
e 32 277
e 33 74
e 33 176
e 33 249
e 33 254
e 33 264
e 34 11
e 34 89
e 34 134
e 34 194
e 34 235
e 35 44
e 35 50
e 35 129
e 35 208
e 35 267
e 36 8
e 36 167
e 36 181
e 36 229
e 36 278
e 37 69
e 37 90
e 37 224
e 37 234
e 37 271
e 38 18
e 38 42
e 38 84
e 38 93
e 38 134
e 39 86
e 39 119
e 39 167
e 39 193
e 39 277
e 40 38
e 40 56
e 40 176
e 40 189
e 40 250
e 41 21
e 41 92
e 41 95
e 41 157
e 41 162
e 42 105
e 42 153
e 42 188
e 42 261
e 42 269
e 43 91
e 43 143
e 43 237
e 43 269
e 43 272
e 44 58
e 44 140
e 44 155
e 44 244
e 44 258
e 45 4
e 45 69
e 45 83
e 45 102
e 45 200
e 46 101
e 46 139
e 46 202
e 46 211
e 46 248
e 47 32
e 47 55
e 47 136
e 47 160
e 47 193
e 48 173
e 48 176
e 48 217
e 48 220
e 48 248
e 49 36
e 49 45
e 49 65
e 49 130
e 49 270
e 50 56
e 50 104
e 50 246
e 50 267
e 50 270
e 51 61
e 51 132
e 51 199
e 51 209
e 51 258
e 52 151
e 52 189
e 52 210
e 52 248
e 52 270
e 53 13
e 53 36
e 53 41
e 53 64
e 53 265
e 54 31
e 54 58
e 54 110
e 54 123
e 54 141
e 55 62
e 55 67
e 55 130
e 55 153
e 55 241
e 56 22
e 56 100
e 56 121
e 56 238
e 56 243
e 57 2
e 57 70
e 57 104
e 57 122
e 57 138
e 58 88
e 58 106
e 58 111
e 58 251
e 58 277
e 59 27
e 59 38
e 59 91
e 59 137
e 59 195
e 60 9
e 60 58
e 60 107
e 60 125
e 60 215
e 61 185
e 61 227
e 61 246
e 61 273
e 61 279
e 62 29
e 62 87
e 62 115
e 62 181
e 62 267
e 63 10
e 63 116
e 63 117
e 63 139
e 63 153
e 64 83
e 64 91
e 64 131
e 64 248
e 64 267
e 65 32
e 65 121
e 65 205
e 65 234
e 65 252
e 66 7
e 66 28
e 66 98
e 66 111
e 66 193
e 67 33
e 67 91
e 67 95
e 67 156
e 67 213
e 68 50
e 68 120
e 68 124
e 68 213
e 68 251
e 69 42
e 69 90
e 69 115
e 69 270
e 69 276
e 70 21
e 70 28
e 70 89
e 70 101
e 70 234
e 71 79
e 71 167
e 71 245
e 71 251
e 71 259
e 72 17
e 72 141
e 72 142
e 72 207
e 72 218
e 73 180
e 73 206
e 73 210
e 73 238
e 73 246
e 74 104
e 74 138
e 74 159
e 74 186
e 74 266
e 75 34
e 75 106
e 75 118
e 75 194
e 75 219
e 76 164
e 76 168
e 76 175
e 76 199
e 76 210
e 77 35
e 77 112
e 77 246
e 77 250
e 77 278
e 78 59
e 78 68
e 78 119
e 78 140
e 78 141
e 79 24
e 79 26
e 79 29
e 79 194
e 79 235
e 80 54
e 80 118
e 80 125
e 80 162
e 80 199
e 81 20
e 81 98
e 81 189
e 81 271
e 81 280
e 82 4
e 82 50
e 82 103
e 82 218
e 82 235
e 83 3
e 83 23
e 83 72
e 83 94
e 83 168
e 84 72
e 84 93
e 84 111
e 84 203
e 84 224
e 85 18
e 85 42
e 85 70
e 85 76
e 85 158
e 86 112
e 86 148
e 86 215
e 86 252
e 86 268
e 87 102
e 87 141
e 87 152
e 87 178
e 87 227
e 88 59
e 88 126
e 88 135
e 88 157
e 88 231
e 89 43
e 89 98
e 89 122
e 89 157
e 89 277
e 90 32
e 90 72
e 90 100
e 90 125
e 90 277
e 91 19
e 91 31
e 91 62
e 91 139
e 91 221
e 92 51
e 92 133
e 92 220
e 92 237
e 92 263
e 93 46
e 93 55
e 93 58
e 93 97
e 93 145
e 94 17
e 94 40
e 94 128
e 94 173
e 94 244
e 95 25
e 95 72
e 95 134
e 95 180
e 95 218
e 96 111
e 96 121
e 96 128
e 96 144
e 96 197
e 97 34
e 97 66
e 97 139
e 97 164
e 97 170
e 98 32
e 98 165
e 98 166
e 98 175
e 98 215
e 99 56
e 99 175
e 99 180
e 99 236
e 99 252
e 100 89
e 100 114
e 100 119
e 100 190
e 100 278
e 101 6
e 101 23
e 101 83
e 101 141
e 101 263
e 102 111
e 102 135
e 102 167
e 102 198
e 102 214
e 103 7
e 103 114
e 103 118
e 103 134
e 103 207
e 104 64
e 104 224
e 104 234
e 104 255
e 104 275
e 105 60
e 105 95
e 105 96
e 105 123
e 105 138
e 106 13
e 106 160
e 106 169
e 106 192
e 106 271
e 107 98
e 107 139
e 107 187
e 107 215
e 107 276
e 108 58
e 108 64
e 108 94
e 108 114
e 108 172
e 109 25
e 109 86
e 109 172
e 109 249
e 109 254
e 110 19
e 110 132
e 110 178
e 110 231
e 110 237
e 111 4
e 111 91
e 111 99
e 111 105
e 111 256
e 112 52
e 112 65
e 112 96
e 112 182
e 112 251
e 113 46
e 113 74
e 113 114
e 113 150
e 113 196
e 114 11
e 114 12
e 114 115
e 114 126
e 114 205
e 115 6
e 115 109
e 115 167
e 115 184
e 115 234
e 116 38
e 116 76
e 116 120
e 116 201
e 116 230
e 117 38
e 117 88
e 117 187
e 117 243
e 117 244
e 118 77
e 118 81
e 118 142
e 118 146
e 118 257
e 119 51
e 119 117
e 119 236
e 119 239
e 119 277
e 120 13
e 120 103
e 120 103
e 120 117
e 120 172
e 121 20
e 121 162
e 121 220
e 121 225
e 121 231
e 122 1
e 122 166
e 122 173
e 122 228
e 122 235
e 123 4
e 123 39
e 123 93
e 123 113
e 123 231
e 124 104
e 124 151
e 124 155
e 124 191
e 124 268
e 125 100
e 125 115
e 125 123
e 125 128
e 125 174
e 126 116
e 126 128
e 126 195
e 126 203
e 126 245
e 127 73
e 127 75
e 127 125
e 127 126
e 127 244
e 128 81
e 128 87
e 128 99
e 128 119
e 128 270
e 129 63
e 129 120
e 129 164
e 129 174
e 129 183
e 130 2
e 130 5
e 130 32
e 130 164
e 130 169
e 131 113
e 131 153
e 131 203
e 131 235
e 131 256
e 132 62
e 132 108
e 132 161
e 132 166
e 132 258
e 133 20
e 133 92
e 133 137
e 133 219
e 133 230
e 134 24
e 134 54
e 134 102
e 134 104
e 134 174
e 135 9
e 135 63
e 135 148
e 135 247
e 135 280
e 136 46
e 136 85
e 136 229
e 136 238
e 136 241
e 137 15
e 137 17
e 137 19
e 137 112
e 137 181
e 138 59
e 138 173
e 138 186
e 138 212
e 138 276
e 139 70
e 139 81
e 139 131
e 139 187
e 139 280
e 140 101
e 140 110
e 140 220
e 140 225
e 140 257
e 141 30
e 141 54
e 141 59
e 141 59
e 141 81
e 142 16
e 142 82
e 142 99
e 142 230
e 142 235
e 143 64
e 143 68
e 143 107
e 143 108
e 143 169
e 144 6
e 144 13
e 144 68
e 144 83
e 144 152
e 145 42
e 145 57
e 145 100
e 145 251
e 145 276
e 146 15
e 146 31
e 146 48
e 146 212
e 146 271
e 147 14
e 147 142
e 147 203
e 147 215
e 147 218
e 148 44
e 148 81
e 148 114
e 148 133
e 148 162
e 149 56
e 149 103
e 149 168
e 149 168
e 149 262
e 150 5
e 150 30
e 150 43
e 150 217
e 150 266
e 151 33
e 151 72
e 151 93
e 151 240
e 151 258
e 152 95
e 152 136
e 152 142
e 152 252
e 152 267
e 153 109
e 153 138
e 153 160
e 153 236
e 153 280
e 154 84
e 154 123
e 154 137
e 154 138
e 154 221
e 155 18
e 155 75
e 155 108
e 155 143
e 155 150
e 156 43
e 156 103
e 156 187
e 156 213
e 156 222
e 157 84
e 157 172
e 157 207
e 157 243
e 157 261
e 158 86
e 158 211
e 158 246
e 158 247
e 158 269
e 159 64
e 159 85
e 159 115
e 159 157
e 159 191
e 160 13
e 160 77
e 160 86
e 160 101
e 160 117
e 161 51
e 161 86
e 161 120
e 161 200
e 161 209
e 162 41
e 162 59
e 162 78
e 162 204
e 162 257
e 163 47
e 163 58
e 163 142
e 163 183
e 163 209
e 164 31
e 164 49
e 164 261
e 164 266
e 164 276
e 165 11
e 165 94
e 165 158
e 165 245
e 165 256
e 166 24
e 166 127
e 166 129
e 166 191
e 166 243
e 167 26
e 167 68
e 167 127
e 167 138
e 167 178
e 168 84
e 168 110
e 168 190
e 168 212
e 168 232
e 169 71
e 169 140
e 169 199
e 169 209
e 169 240
e 170 138
e 170 171
e 170 187
e 170 251
e 170 274
e 171 153
e 171 172
e 171 177
e 171 279
e 171 280
e 172 20
e 172 48
e 172 58
e 172 73
e 172 138
e 173 2
e 173 58
e 173 113
e 173 146
e 173 167
e 174 136
e 174 145
e 174 179
e 174 190
e 174 249
e 175 36
e 175 126
e 175 177
e 175 255
e 175 267
e 176 22
e 176 35
e 176 109
e 176 149
e 176 209
e 177 36
e 177 78
e 177 191
e 177 274
e 177 279
e 178 6
e 178 41
e 178 215
e 178 249
e 178 273
e 179 84
e 179 86
e 179 133
e 179 158
e 179 223
e 180 54
e 180 62
e 180 103
e 180 168
e 180 201
e 181 55
e 181 120
e 181 148
e 181 215
e 181 222
e 182 39
e 182 106
e 182 238
e 182 240
e 182 275
e 183 2
e 183 83
e 183 133
e 183 172
e 183 262
e 184 62
e 184 117
e 184 131
e 184 213
e 184 263
e 185 18
e 185 75
e 185 80
e 185 83
e 185 280
e 186 14
e 186 176
e 186 229
e 186 252
e 186 267
e 187 71
e 187 92
e 187 104
e 187 158
e 187 205
e 188 18
e 188 38
e 188 77
e 188 173
e 188 260
e 189 29
e 189 72
e 189 201
e 189 230
e 189 268
e 190 7
e 190 31
e 190 51
e 190 177
e 190 262
e 191 32
e 191 71
e 191 113
e 191 230
e 191 266
e 192 1
e 192 84
e 192 152
e 192 162
e 192 198
e 193 101
e 193 113
e 193 227
e 193 239
e 193 279
e 194 40
e 194 73
e 194 85
e 194 148
e 194 250
e 195 36
e 195 155
e 195 200
e 195 202
e 195 225
e 196 10
e 196 33
e 196 53
e 196 179
e 196 262
e 197 4
e 197 45
e 197 251
e 197 277
e 197 277
e 198 1
e 198 95
e 198 130
e 198 226
e 198 266
e 199 87
e 199 110
e 199 115
e 199 127
e 199 184
e 200 56
e 200 160
e 200 170
e 200 273
e 200 273
e 201 10
e 201 142
e 201 154
e 201 231
e 201 271
e 202 110
e 202 112
e 202 212
e 202 234
e 202 265
e 203 38
e 203 51
e 203 56
e 203 56
e 203 269
e 204 190
e 204 194
e 204 199
e 204 225
e 204 234
e 205 76
e 205 135
e 205 196
e 205 229
e 205 234
e 206 76
e 206 184
e 206 197
e 206 201
e 206 214
e 207 47
e 207 78
e 207 172
e 207 239
e 207 244
e 208 61
e 208 166
e 208 179
e 208 202
e 208 222
e 209 13
e 209 21
e 209 84
e 209 191
e 209 211
e 210 5
e 210 36
e 210 123
e 210 195
e 210 238
e 211 25
e 211 60
e 211 90
e 211 160
e 211 247
e 212 23
e 212 112
e 212 165
e 212 230
e 212 279
e 213 17
e 213 53
e 213 60
e 213 104
e 213 214
e 214 24
e 214 117
e 214 145
e 214 216
e 214 222
e 215 36
e 215 172
e 215 177
e 215 227
e 215 248
e 216 23
e 216 113
e 216 113
e 216 163
e 216 170
e 217 43
e 217 69
e 217 114
e 217 135
e 217 252
e 218 8
e 218 184
e 218 199
e 218 257
e 218 262
e 219 8
e 219 14
e 219 182
e 219 258
e 219 273
e 220 67
e 220 126
e 220 143
e 220 238
e 220 254
e 221 57
e 221 59
e 221 118
e 221 142
e 221 184
e 222 47
e 222 74
e 222 235
e 222 254
e 222 261
e 223 106
e 223 126
e 223 214
e 223 229
e 223 274
e 224 111
e 224 179
e 224 228
e 224 270
e 224 280
e 225 43
e 225 120
e 225 185
e 225 241
e 225 250
e 226 23
e 226 91
e 226 112
e 226 162
e 226 241
e 227 41
e 227 104
e 227 150
e 227 159
e 227 167
e 228 19
e 228 124
e 228 181
e 228 198
e 228 229
e 229 32
e 229 54
e 229 120
e 229 158
e 229 231
e 230 54
e 230 94
e 230 101
e 230 211
e 230 266
e 231 71
e 231 112
e 231 159
e 231 208
e 231 222
e 232 2
e 232 70
e 232 148
e 232 261
e 232 272
e 233 100
e 233 150
e 233 176
e 233 225
e 233 264
e 234 187
e 234 209
e 234 250
e 234 253
e 234 275
e 235 10
e 235 33
e 235 214
e 235 263
e 235 271
e 236 104
e 236 111
e 236 114
e 236 233
e 236 268
e 237 40
e 237 90
e 237 135
e 237 140
e 237 152
e 238 20
e 238 91
e 238 103
e 238 105
e 238 272
e 239 47
e 239 51
e 239 70
e 239 89
e 239 196
e 240 116
e 240 187
e 240 202
e 240 219
e 240 252
e 241 37
e 241 68
e 241 163
e 241 174
e 241 235
e 242 4
e 242 28
e 242 168
e 242 200
e 242 254
e 243 5
e 243 245
e 243 263
e 243 264
e 243 275
e 244 19
e 244 104
e 244 235
e 244 260
e 244 260
e 245 27
e 245 30
e 245 106
e 245 114
e 245 193
e 246 17
e 246 80
e 246 85
e 246 134
e 246 135
e 247 15
e 247 76
e 247 168
e 247 180
e 247 276
e 248 8
e 248 11
e 248 54
e 248 60
e 248 150
e 249 43
e 249 43
e 249 78
e 249 122
e 249 210
e 250 1
e 250 46
e 250 51
e 250 131
e 250 185
e 251 44
e 251 109
e 251 150
e 251 158
e 251 192
e 252 62
e 252 80
e 252 123
e 252 137
e 252 253
e 253 100
e 253 122
e 253 156
e 253 166
e 253 244
e 254 21
e 254 123
e 254 128
e 254 179
e 254 249
e 255 46
e 255 100
e 255 149
e 255 188
e 255 203
e 256 70
e 256 72
e 256 107
e 256 114
e 256 275
e 257 86
e 257 147
e 257 149
e 257 195
e 257 197
e 258 67
e 258 68
e 258 225
e 258 253
e 258 276
e 259 21
e 259 81
e 259 122
e 259 247
e 259 260
e 260 4
e 260 65
e 260 75
e 260 198
e 260 235
e 261 38
e 261 73
e 261 125
e 261 174
e 261 204
e 262 46
e 262 49
e 262 58
e 262 252
e 262 270
e 263 89
e 263 117
e 263 183
e 263 186
e 263 270
e 264 11
e 264 52
e 264 103
e 264 196
e 264 216
e 265 2
e 265 120
e 265 170
e 265 237
e 265 259
e 266 9
e 266 86
e 266 93
e 266 132
e 266 181
e 267 10
e 267 24
e 267 52
e 267 130
e 267 133
e 268 199
e 268 207
e 268 208
e 268 236
e 268 253
e 269 14
e 269 45
e 269 51
e 269 174
e 269 237
e 270 14
e 270 131
e 270 187
e 270 188
e 270 220
e 271 36
e 271 62
e 271 82
e 271 209
e 271 275
e 272 52
e 272 183
e 272 224
e 272 240
e 272 278
e 273 43
e 273 79
e 273 151
e 273 180
e 273 197
e 274 18
e 274 129
e 274 154
e 274 178
e 274 232
e 275 27
e 275 50
e 275 52
e 275 85
e 275 164
e 276 87
e 276 136
e 276 181
e 276 226
e 276 259
e 277 53
e 277 182
e 277 195
e 277 227
e 277 256
e 278 166
e 278 197
e 278 233
e 278 239
e 278 248
e 279 20
e 279 167
e 279 170
e 279 233
e 279 246
e 280 142
e 280 164
e 280 164
e 280 192
e 280 244
